52      4       
10      10      10      10      
0       0       0       0       0       3       2       3       4       
6       0       5       0       0       1       5       
1       0       0       7       2       1       23      
8       7       0       0       1       1       13      
9       9       8       1       0       1       6       
6       4       6       3       3       1       7       
7       2       0       1       0       1       8       
1       0       0       0       7       1       9       
6       7       0       0       1       1       10      
1       0       5       0       0       1       11      
6       0       0       6       8       1       12      
6       5       0       7       0       1       14      
8       10      9       0       0       1       17      
4       3       0       0       0       1       15      
8       3       4       4       9       1       16      
10      0       10      1       0       1       18      
10      6       6       6       9       1       24      
3       0       0       9       0       1       19      
6       2       5       7       3       1       20      
8       0       5       8       0       1       21      
1       4       6       10      4       1       22      
5       7       0       5       0       1       26      
9       1       0       9       10      1       27      
6       6       2       0       0       1       25      
7       5       0       0       0       1       29      
2       0       0       0       8       1       28      
5       5       1       9       0       1       41      
1       0       0       0       10      1       30      
1       7       0       9       0       1       36      
3       0       9       0       8       1       31      
10      0       0       7       3       1       32      
6       5       0       0       2       1       33      
8       0       0       0       3       2       34      41      
8       4       9       0       0       1       35      
4       7       0       9       0       1       38      
6       0       7       5       10      1       37      
5       0       0       9       0       1       39      
8       0       0       0       7       1       44      
2       3       0       1       10      1       40      
4       0       0       6       0       1       47      
3       0       10      0       5       1       42      
1       10      0       0       6       1       43      
4       0       0       0       8       1       45      
10      2       10      5       10      1       48      
2       0       0       7       0       1       46      
1       10      0       0       0       1       49      
4       1       4       0       4       1       50      
4       0       0       0       8       1       49      
4       6       0       0       0       1       51      
4       9       0       0       0       1       52      
1       0       0       3       7       1       52      
0       0       0       0       0       0       
